p cnf 318 2624
81 145 172 221 0
79 166 207 232 307 0
72 158 169 267 0
165 231 271 273 0
113 147 148 279 0
60 65 153 0
131 135 142 175 186 196 0
55 188 286 288 0
198 200 294 296 0
155 185 201 0
208 209 218 228 0
137 161 181 184 212 0
150 171 177 214 0
217 224 227 234 310 0
120 122 123 126 129 298 0
114 115 117 300 0
104 105 106 110 111 0
99 101 102 0
94 97 190 192 0
85 87 89 91 93 0
83 84 173 194 0
80 162 163 203 205 0
76 78 160 179 0
73 74 156 159 0
71 132 220 0
70 108 112 0
66 68 151 0
57 59 62 64 0
56 130 133 183 0
96 143 167 187 189 0
52 54 236 237 240 0
241 243 0
202 204 244 245 0
178 215 225 246 0
118 124 0
103 248 0
249 250 251 0
95 98 193 252 253 254 0
86 88 90 92 195 255 0
174 256 257 258 259 0
82 146 260 261 262 0
164 263 264 0
75 77 265 0
206 222 233 266 0
149 157 268 269 270 0
109 152 272 274 275 276 0
63 67 69 154 277 302 0
58 61 278 280 283 0
53 168 191 284 0
176 197 285 0
242 287 289 0
140 211 238 291 292 0
138 199 293 295 297 0
219 226 229 247 0
127 136 235 0
216 223 0
100 299 301 0
-267 -271 0
-267 -303 0
-271 -303 0
-80 -304 0
-78 -304 0
-74 -304 0
-71 -304 0
-304 -305 0
-112 -304 0
-78 -80 0
-74 -80 0
-71 -80 0
-80 -305 0
-80 -112 0
-74 -78 0
-71 -78 0
-78 -305 0
-78 -112 0
-71 -74 0
-74 -305 0
-74 -112 0
-71 -305 0
-71 -112 0
-112 -305 0
-56 -64 0
-64 -143 0
-54 -64 0
-64 -306 0
-64 -202 0
-64 -141 0
-56 -143 0
-54 -56 0
-56 -306 0
-56 -202 0
-56 -141 0
-54 -143 0
-143 -306 0
-143 -202 0
-141 -143 0
-54 -306 0
-54 -202 0
-54 -141 0
-202 -306 0
-141 -306 0
-141 -202 0
-215 -230 0
-124 -215 0
-116 -215 0
-107 -215 0
-103 -215 0
-215 -249 0
-124 -230 0
-116 -230 0
-107 -230 0
-103 -230 0
-230 -249 0
-116 -124 0
-107 -124 0
-103 -124 0
-124 -249 0
-107 -116 0
-103 -116 0
-116 -249 0
-103 -107 0
-107 -249 0
-103 -249 0
-92 -174 0
-92 -260 0
-92 -164 0
-77 -92 0
-92 -222 0
-92 -308 0
-174 -260 0
-164 -174 0
-77 -174 0
-174 -222 0
-174 -308 0
-164 -260 0
-77 -260 0
-222 -260 0
-260 -308 0
-77 -164 0
-164 -222 0
-164 -308 0
-77 -222 0
-77 -308 0
-222 -308 0
-69 -109 0
-61 -109 0
-109 -134 0
-109 -168 0
-109 -285 0
-109 -242 0
-61 -69 0
-69 -134 0
-69 -168 0
-69 -285 0
-69 -242 0
-61 -134 0
-61 -168 0
-61 -285 0
-61 -242 0
-134 -168 0
-134 -285 0
-134 -242 0
-168 -285 0
-168 -242 0
-242 -285 0
-293 -309 0
-247 -293 0
-235 -293 0
-119 -293 0
-293 -311 0
-293 -299 0
-247 -309 0
-235 -309 0
-119 -309 0
-309 -311 0
-299 -309 0
-235 -247 0
-119 -247 0
-247 -311 0
-247 -299 0
-119 -235 0
-235 -311 0
-235 -299 0
-119 -311 0
-119 -299 0
-299 -311 0
-64 -304 0
-215 -304 0
-92 -304 0
-109 -304 0
-293 -304 0
-64 -215 0
-64 -92 0
-64 -109 0
-64 -293 0
-92 -215 0
-109 -215 0
-215 -293 0
-92 -109 0
-92 -293 0
-109 -293 0
-56 -80 0
-80 -230 0
-80 -174 0
-69 -80 0
-80 -309 0
-56 -230 0
-56 -174 0
-56 -69 0
-56 -309 0
-174 -230 0
-69 -230 0
-230 -309 0
-69 -174 0
-174 -309 0
-69 -309 0
-78 -267 0
-143 -267 0
-124 -267 0
-260 -267 0
-61 -267 0
-247 -267 0
-78 -143 0
-78 -124 0
-78 -260 0
-61 -78 0
-78 -247 0
-124 -143 0
-143 -260 0
-61 -143 0
-143 -247 0
-124 -260 0
-61 -124 0
-124 -247 0
-61 -260 0
-247 -260 0
-61 -247 0
-74 -271 0
-54 -271 0
-116 -271 0
-164 -271 0
-134 -271 0
-235 -271 0
-54 -74 0
-74 -116 0
-74 -164 0
-74 -134 0
-74 -235 0
-54 -116 0
-54 -164 0
-54 -134 0
-54 -235 0
-116 -164 0
-116 -134 0
-116 -235 0
-134 -164 0
-164 -235 0
-134 -235 0
-71 -303 0
-303 -306 0
-107 -303 0
-77 -303 0
-168 -303 0
-119 -303 0
-71 -306 0
-71 -107 0
-71 -77 0
-71 -168 0
-71 -119 0
-107 -306 0
-77 -306 0
-168 -306 0
-119 -306 0
-77 -107 0
-107 -168 0
-107 -119 0
-77 -168 0
-77 -119 0
-119 -168 0
-202 -305 0
-103 -305 0
-222 -305 0
-285 -305 0
-305 -311 0
-103 -202 0
-202 -222 0
-202 -285 0
-202 -311 0
-103 -222 0
-103 -285 0
-103 -311 0
-222 -285 0
-222 -311 0
-285 -311 0
-112 -141 0
-112 -249 0
-112 -308 0
-112 -242 0
-112 -299 0
-141 -249 0
-141 -308 0
-141 -242 0
-141 -299 0
-249 -308 0
-242 -249 0
-249 -299 0
-242 -308 0
-299 -308 0
-242 -299 0
-145 -207 0
-145 -180 0
-145 -158 0
-145 -273 0
-145 -279 0
-145 -153 0
-180 -207 0
-158 -207 0
-207 -273 0
-207 -279 0
-153 -207 0
-158 -180 0
-180 -273 0
-180 -279 0
-153 -180 0
-158 -273 0
-158 -279 0
-153 -158 0
-273 -279 0
-153 -273 0
-153 -279 0
-196 -282 0
-188 -282 0
-239 -282 0
-282 -294 0
-218 -282 0
-150 -282 0
-188 -196 0
-196 -239 0
-196 -294 0
-196 -218 0
-150 -196 0
-188 -239 0
-188 -294 0
-188 -218 0
-150 -188 0
-239 -294 0
-218 -239 0
-150 -239 0
-218 -294 0
-150 -294 0
-150 -218 0
-129 -217 0
-117 -217 0
-111 -217 0
-217 -312 0
-217 -313 0
-93 -217 0
-117 -129 0
-111 -129 0
-129 -312 0
-129 -313 0
-93 -129 0
-111 -117 0
-117 -312 0
-117 -313 0
-93 -117 0
-111 -312 0
-111 -313 0
-93 -111 0
-312 -313 0
-93 -312 0
-93 -313 0
-84 -314 0
-84 -162 0
-84 -315 0
-70 -84 0
-162 -314 0
-314 -315 0
-70 -314 0
-162 -315 0
-70 -162 0
-70 -315 0
-178 -182 0
-182 -316 0
-182 -317 0
-182 -250 0
-178 -316 0
-178 -317 0
-178 -250 0
-316 -317 0
-250 -316 0
-250 -317 0
-90 -193 0
-193 -256 0
-193 -261 0
-193 -263 0
-90 -256 0
-90 -261 0
-90 -263 0
-256 -261 0
-256 -263 0
-261 -263 0
-268 -272 0
-268 -302 0
-268 -278 0
-268 -318 0
-272 -302 0
-272 -278 0
-272 -318 0
-278 -302 0
-302 -318 0
-278 -318 0
-145 -282 0
-145 -217 0
-84 -145 0
-145 -182 0
-145 -193 0
-145 -268 0
-217 -282 0
-84 -282 0
-182 -282 0
-193 -282 0
-268 -282 0
-84 -217 0
-182 -217 0
-193 -217 0
-217 -268 0
-84 -182 0
-84 -193 0
-84 -268 0
-182 -193 0
-182 -268 0
-193 -268 0
-196 -207 0
-129 -207 0
-207 -314 0
-178 -207 0
-90 -207 0
-207 -272 0
-129 -196 0
-196 -314 0
-178 -196 0
-90 -196 0
-196 -272 0
-129 -314 0
-129 -178 0
-90 -129 0
-129 -272 0
-178 -314 0
-90 -314 0
-272 -314 0
-90 -178 0
-178 -272 0
-90 -272 0
-180 -188 0
-117 -180 0
-162 -180 0
-180 -316 0
-180 -256 0
-180 -302 0
-117 -188 0
-162 -188 0
-188 -316 0
-188 -256 0
-188 -302 0
-117 -162 0
-117 -316 0
-117 -256 0
-117 -302 0
-162 -316 0
-162 -256 0
-162 -302 0
-256 -316 0
-302 -316 0
-256 -302 0
-158 -239 0
-111 -158 0
-158 -261 0
-158 -278 0
-111 -239 0
-239 -261 0
-239 -278 0
-111 -261 0
-111 -278 0
-261 -278 0
-273 -294 0
-273 -312 0
-263 -273 0
-273 -318 0
-294 -312 0
-263 -294 0
-294 -318 0
-263 -312 0
-312 -318 0
-263 -318 0
-218 -279 0
-279 -313 0
-279 -315 0
-279 -317 0
-218 -313 0
-218 -315 0
-218 -317 0
-313 -315 0
-313 -317 0
-315 -317 0
-150 -153 0
-93 -153 0
-70 -153 0
-153 -250 0
-93 -150 0
-70 -150 0
-150 -250 0
-70 -93 0
-93 -250 0
-70 -250 0
-166 -172 0
-51 -172 0
-148 -172 0
-49 -172 0
-51 -166 0
-148 -166 0
-49 -166 0
-51 -148 0
-49 -51 0
-49 -148 0
-48 -135 0
-48 -286 0
-48 -208 0
-48 -161 0
-135 -286 0
-135 -208 0
-135 -161 0
-208 -286 0
-161 -286 0
-161 -208 0
-47 -194 0
-194 -203 0
-47 -203 0
-98 -255 0
-98 -257 0
-98 -146 0
-98 -144 0
-98 -206 0
-255 -257 0
-146 -255 0
-144 -255 0
-206 -255 0
-146 -257 0
-144 -257 0
-206 -257 0
-144 -146 0
-146 -206 0
-144 -206 0
-157 -274 0
-154 -157 0
-157 -280 0
-157 -281 0
-157 -197 0
-154 -274 0
-274 -280 0
-274 -281 0
-197 -274 0
-154 -280 0
-154 -281 0
-154 -197 0
-280 -281 0
-197 -280 0
-197 -281 0
-238 -295 0
-46 -238 0
-219 -238 0
-216 -238 0
-128 -238 0
-46 -295 0
-219 -295 0
-216 -295 0
-128 -295 0
-46 -219 0
-46 -216 0
-46 -128 0
-216 -219 0
-128 -219 0
-128 -216 0
-48 -172 0
-172 -194 0
-98 -172 0
-157 -172 0
-172 -238 0
-48 -194 0
-48 -98 0
-48 -157 0
-48 -238 0
-98 -194 0
-157 -194 0
-194 -238 0
-98 -157 0
-98 -238 0
-157 -238 0
-135 -166 0
-47 -166 0
-166 -255 0
-166 -274 0
-166 -295 0
-47 -135 0
-135 -255 0
-135 -274 0
-135 -295 0
-47 -255 0
-47 -274 0
-47 -295 0
-255 -274 0
-255 -295 0
-274 -295 0
-51 -286 0
-51 -203 0
-51 -257 0
-51 -154 0
-46 -51 0
-203 -286 0
-257 -286 0
-154 -286 0
-46 -286 0
-203 -257 0
-154 -203 0
-46 -203 0
-154 -257 0
-46 -257 0
-46 -154 0
-146 -280 0
-146 -219 0
-219 -280 0
-148 -208 0
-144 -148 0
-148 -281 0
-148 -216 0
-144 -208 0
-208 -281 0
-208 -216 0
-144 -281 0
-144 -216 0
-216 -281 0
-49 -161 0
-49 -206 0
-49 -197 0
-49 -128 0
-161 -206 0
-161 -197 0
-128 -161 0
-197 -206 0
-128 -206 0
-128 -197 0
-45 -175 0
-45 -288 0
-45 -290 0
-45 -296 0
-175 -288 0
-175 -290 0
-175 -296 0
-288 -290 0
-288 -296 0
-290 -296 0
-126 -224 0
-224 -300 0
-110 -224 0
-43 -224 0
-126 -300 0
-110 -126 0
-43 -126 0
-110 -300 0
-43 -300 0
-43 -110 0
-42 -83 0
-83 -205 0
-83 -160 0
-83 -156 0
-42 -205 0
-42 -160 0
-42 -156 0
-160 -205 0
-156 -205 0
-156 -160 0
-62 -151 0
-151 -183 0
-151 -187 0
-52 -151 0
-62 -183 0
-62 -187 0
-52 -62 0
-183 -187 0
-52 -183 0
-52 -187 0
-88 -95 0
-95 -258 0
-50 -95 0
-88 -258 0
-50 -88 0
-50 -258 0
-149 -275 0
-149 -277 0
-149 -287 0
-275 -277 0
-275 -287 0
-277 -287 0
-45 -224 0
-45 -83 0
-45 -151 0
-45 -95 0
-45 -149 0
-83 -224 0
-151 -224 0
-95 -224 0
-149 -224 0
-83 -151 0
-83 -95 0
-83 -149 0
-95 -151 0
-149 -151 0
-95 -149 0
-126 -175 0
-42 -175 0
-62 -175 0
-88 -175 0
-175 -275 0
-42 -126 0
-62 -126 0
-88 -126 0
-126 -275 0
-42 -62 0
-42 -88 0
-42 -275 0
-62 -88 0
-62 -275 0
-88 -275 0
-288 -300 0
-205 -288 0
-183 -288 0
-258 -288 0
-277 -288 0
-205 -300 0
-183 -300 0
-258 -300 0
-277 -300 0
-183 -205 0
-205 -258 0
-205 -277 0
-183 -258 0
-183 -277 0
-258 -277 0
-110 -290 0
-160 -290 0
-187 -290 0
-110 -160 0
-110 -187 0
-160 -187 0
-43 -296 0
-156 -296 0
-52 -296 0
-43 -156 0
-43 -52 0
-52 -156 0
-50 -287 0
-79 -81 0
-41 -81 0
-72 -81 0
-81 -165 0
-40 -81 0
-81 -113 0
-39 -81 0
-65 -81 0
-41 -79 0
-72 -79 0
-79 -165 0
-40 -79 0
-79 -113 0
-39 -79 0
-65 -79 0
-41 -72 0
-41 -165 0
-40 -41 0
-41 -113 0
-39 -41 0
-41 -65 0
-72 -165 0
-40 -72 0
-72 -113 0
-39 -72 0
-65 -72 0
-40 -165 0
-113 -165 0
-39 -165 0
-65 -165 0
-40 -113 0
-39 -40 0
-40 -65 0
-39 -113 0
-65 -113 0
-39 -65 0
-38 -142 0
-38 -55 0
-38 -139 0
-38 -198 0
-38 -201 0
-38 -228 0
-38 -212 0
-38 -214 0
-55 -142 0
-139 -142 0
-142 -198 0
-142 -201 0
-142 -228 0
-142 -212 0
-142 -214 0
-55 -139 0
-55 -198 0
-55 -201 0
-55 -228 0
-55 -212 0
-55 -214 0
-139 -198 0
-139 -201 0
-139 -228 0
-139 -212 0
-139 -214 0
-198 -201 0
-198 -228 0
-198 -212 0
-198 -214 0
-201 -228 0
-201 -212 0
-201 -214 0
-212 -228 0
-214 -228 0
-212 -214 0
-123 -227 0
-115 -227 0
-106 -227 0
-37 -227 0
-102 -227 0
-36 -227 0
-190 -227 0
-91 -227 0
-115 -123 0
-106 -123 0
-37 -123 0
-102 -123 0
-36 -123 0
-123 -190 0
-91 -123 0
-106 -115 0
-37 -115 0
-102 -115 0
-36 -115 0
-115 -190 0
-91 -115 0
-37 -106 0
-102 -106 0
-36 -106 0
-106 -190 0
-91 -106 0
-37 -102 0
-36 -37 0
-37 -190 0
-37 -91 0
-36 -102 0
-102 -190 0
-91 -102 0
-36 -190 0
-36 -91 0
-91 -190 0
-35 -173 0
-163 -173 0
-76 -173 0
-73 -173 0
-173 -220 0
-34 -173 0
-33 -173 0
-108 -173 0
-35 -163 0
-35 -76 0
-35 -73 0
-35 -220 0
-34 -35 0
-33 -35 0
-35 -108 0
-76 -163 0
-73 -163 0
-163 -220 0
-34 -163 0
-33 -163 0
-108 -163 0
-73 -76 0
-76 -220 0
-34 -76 0
-33 -76 0
-76 -108 0
-73 -220 0
-34 -73 0
-33 -73 0
-73 -108 0
-34 -220 0
-33 -220 0
-108 -220 0
-33 -34 0
-34 -108 0
-33 -108 0
-59 -68 0
-68 -133 0
-68 -167 0
-68 -236 0
-32 -68 0
-68 -241 0
-68 -244 0
-31 -68 0
-59 -133 0
-59 -167 0
-59 -236 0
-32 -59 0
-59 -241 0
-59 -244 0
-31 -59 0
-133 -167 0
-133 -236 0
-32 -133 0
-133 -241 0
-133 -244 0
-31 -133 0
-167 -236 0
-32 -167 0
-167 -241 0
-167 -244 0
-31 -167 0
-32 -236 0
-236 -241 0
-236 -244 0
-31 -236 0
-32 -241 0
-32 -244 0
-31 -32 0
-241 -244 0
-31 -241 0
-31 -244 0
-30 -246 0
-29 -30 0
-30 -118 0
-28 -30 0
-27 -30 0
-26 -30 0
-30 -248 0
-30 -251 0
-29 -246 0
-118 -246 0
-28 -246 0
-27 -246 0
-26 -246 0
-246 -248 0
-246 -251 0
-29 -118 0
-28 -29 0
-27 -29 0
-26 -29 0
-29 -248 0
-29 -251 0
-28 -118 0
-27 -118 0
-26 -118 0
-118 -248 0
-118 -251 0
-27 -28 0
-26 -28 0
-28 -248 0
-28 -251 0
-26 -27 0
-27 -248 0
-27 -251 0
-26 -248 0
-26 -251 0
-248 -251 0
-86 -252 0
-252 -259 0
-252 -262 0
-252 -264 0
-252 -265 0
-25 -252 0
-252 -266 0
-24 -252 0
-86 -259 0
-86 -262 0
-86 -264 0
-86 -265 0
-25 -86 0
-86 -266 0
-24 -86 0
-259 -262 0
-259 -264 0
-259 -265 0
-25 -259 0
-259 -266 0
-24 -259 0
-262 -264 0
-262 -265 0
-25 -262 0
-262 -266 0
-24 -262 0
-264 -265 0
-25 -264 0
-264 -266 0
-24 -264 0
-25 -265 0
-265 -266 0
-24 -265 0
-25 -266 0
-24 -25 0
-24 -266 0
-269 -276 0
-67 -269 0
-58 -269 0
-23 -269 0
-191 -269 0
-44 -269 0
-176 -269 0
-269 -289 0
-67 -276 0
-58 -276 0
-23 -276 0
-191 -276 0
-44 -276 0
-176 -276 0
-276 -289 0
-58 -67 0
-23 -67 0
-67 -191 0
-44 -67 0
-67 -176 0
-67 -289 0
-23 -58 0
-58 -191 0
-44 -58 0
-58 -176 0
-58 -289 0
-23 -191 0
-23 -44 0
-23 -176 0
-23 -289 0
-44 -191 0
-176 -191 0
-191 -289 0
-44 -176 0
-44 -289 0
-176 -289 0
-291 -297 0
-22 -291 0
-226 -291 0
-127 -291 0
-21 -291 0
-223 -291 0
-125 -291 0
-291 -301 0
-22 -297 0
-226 -297 0
-127 -297 0
-21 -297 0
-223 -297 0
-125 -297 0
-297 -301 0
-22 -226 0
-22 -127 0
-21 -22 0
-22 -223 0
-22 -125 0
-22 -301 0
-127 -226 0
-21 -226 0
-223 -226 0
-125 -226 0
-226 -301 0
-21 -127 0
-127 -223 0
-125 -127 0
-127 -301 0
-21 -223 0
-21 -125 0
-21 -301 0
-125 -223 0
-223 -301 0
-125 -301 0
-38 -81 0
-81 -227 0
-81 -173 0
-68 -81 0
-30 -81 0
-81 -252 0
-81 -269 0
-81 -291 0
-38 -227 0
-38 -173 0
-38 -68 0
-30 -38 0
-38 -252 0
-38 -269 0
-38 -291 0
-173 -227 0
-68 -227 0
-30 -227 0
-227 -252 0
-227 -269 0
-227 -291 0
-68 -173 0
-30 -173 0
-173 -252 0
-173 -269 0
-173 -291 0
-30 -68 0
-68 -252 0
-68 -269 0
-68 -291 0
-30 -252 0
-30 -269 0
-30 -291 0
-252 -269 0
-252 -291 0
-269 -291 0
-79 -142 0
-79 -123 0
-35 -79 0
-59 -79 0
-79 -246 0
-79 -86 0
-79 -276 0
-79 -297 0
-123 -142 0
-35 -142 0
-59 -142 0
-142 -246 0
-86 -142 0
-142 -276 0
-142 -297 0
-35 -123 0
-59 -123 0
-123 -246 0
-86 -123 0
-123 -276 0
-123 -297 0
-35 -59 0
-35 -246 0
-35 -86 0
-35 -276 0
-35 -297 0
-59 -246 0
-59 -86 0
-59 -276 0
-59 -297 0
-86 -246 0
-246 -276 0
-246 -297 0
-86 -276 0
-86 -297 0
-276 -297 0
-41 -55 0
-41 -115 0
-41 -163 0
-41 -133 0
-29 -41 0
-41 -259 0
-41 -67 0
-22 -41 0
-55 -115 0
-55 -163 0
-55 -133 0
-29 -55 0
-55 -259 0
-55 -67 0
-22 -55 0
-115 -163 0
-115 -133 0
-29 -115 0
-115 -259 0
-67 -115 0
-22 -115 0
-133 -163 0
-29 -163 0
-163 -259 0
-67 -163 0
-22 -163 0
-29 -133 0
-133 -259 0
-67 -133 0
-22 -133 0
-29 -259 0
-29 -67 0
-22 -29 0
-67 -259 0
-22 -259 0
-22 -67 0
-72 -139 0
-72 -106 0
-72 -76 0
-72 -167 0
-72 -118 0
-72 -262 0
-58 -72 0
-72 -226 0
-106 -139 0
-76 -139 0
-139 -167 0
-118 -139 0
-139 -262 0
-58 -139 0
-139 -226 0
-76 -106 0
-106 -167 0
-106 -118 0
-106 -262 0
-58 -106 0
-106 -226 0
-76 -167 0
-76 -118 0
-76 -262 0
-58 -76 0
-76 -226 0
-118 -167 0
-167 -262 0
-58 -167 0
-167 -226 0
-118 -262 0
-58 -118 0
-118 -226 0
-58 -262 0
-226 -262 0
-58 -226 0
-165 -198 0
-37 -165 0
-73 -165 0
-165 -236 0
-28 -165 0
-165 -264 0
-23 -165 0
-127 -165 0
-37 -198 0
-73 -198 0
-198 -236 0
-28 -198 0
-198 -264 0
-23 -198 0
-127 -198 0
-37 -73 0
-37 -236 0
-28 -37 0
-37 -264 0
-23 -37 0
-37 -127 0
-73 -236 0
-28 -73 0
-73 -264 0
-23 -73 0
-73 -127 0
-28 -236 0
-236 -264 0
-23 -236 0
-127 -236 0
-28 -264 0
-23 -28 0
-28 -127 0
-23 -264 0
-127 -264 0
-23 -127 0
-40 -201 0
-40 -102 0
-40 -220 0
-32 -40 0
-27 -40 0
-40 -265 0
-40 -191 0
-21 -40 0
-102 -201 0
-201 -220 0
-32 -201 0
-27 -201 0
-201 -265 0
-191 -201 0
-21 -201 0
-102 -220 0
-32 -102 0
-27 -102 0
-102 -265 0
-102 -191 0
-21 -102 0
-32 -220 0
-27 -220 0
-220 -265 0
-191 -220 0
-21 -220 0
-27 -32 0
-32 -265 0
-32 -191 0
-21 -32 0
-27 -265 0
-27 -191 0
-21 -27 0
-191 -265 0
-21 -265 0
-21 -191 0
-113 -228 0
-36 -113 0
-34 -113 0
-113 -241 0
-26 -113 0
-25 -113 0
-44 -113 0
-113 -223 0
-36 -228 0
-34 -228 0
-228 -241 0
-26 -228 0
-25 -228 0
-44 -228 0
-223 -228 0
-34 -36 0
-36 -241 0
-26 -36 0
-25 -36 0
-36 -44 0
-36 -223 0
-34 -241 0
-26 -34 0
-25 -34 0
-34 -44 0
-34 -223 0
-26 -241 0
-25 -241 0
-44 -241 0
-223 -241 0
-25 -26 0
-26 -44 0
-26 -223 0
-25 -44 0
-25 -223 0
-44 -223 0
-39 -212 0
-39 -190 0
-33 -39 0
-39 -244 0
-39 -248 0
-39 -266 0
-39 -176 0
-39 -125 0
-190 -212 0
-33 -212 0
-212 -244 0
-212 -248 0
-212 -266 0
-176 -212 0
-125 -212 0
-33 -190 0
-190 -244 0
-190 -248 0
-190 -266 0
-176 -190 0
-125 -190 0
-33 -244 0
-33 -248 0
-33 -266 0
-33 -176 0
-33 -125 0
-244 -248 0
-244 -266 0
-176 -244 0
-125 -244 0
-248 -266 0
-176 -248 0
-125 -248 0
-176 -266 0
-125 -266 0
-125 -176 0
-65 -214 0
-65 -91 0
-65 -108 0
-31 -65 0
-65 -251 0
-24 -65 0
-65 -289 0
-65 -301 0
-91 -214 0
-108 -214 0
-31 -214 0
-214 -251 0
-24 -214 0
-214 -289 0
-214 -301 0
-91 -108 0
-31 -91 0
-91 -251 0
-24 -91 0
-91 -289 0
-91 -301 0
-31 -108 0
-108 -251 0
-24 -108 0
-108 -289 0
-108 -301 0
-31 -251 0
-24 -31 0
-31 -289 0
-31 -301 0
-24 -251 0
-251 -289 0
-251 -301 0
-24 -289 0
-24 -301 0
-289 -301 0
-20 -185 0
-20 -181 0
-20 -177 0
-181 -185 0
-177 -185 0
-177 -181 0
-101 -105 0
-105 -192 0
-89 -105 0
-101 -192 0
-89 -101 0
-89 -192 0
-19 -245 0
-82 -253 0
-75 -253 0
-75 -82 0
-140 -229 0
-140 -213 0
-213 -229 0
-140 -253 0
-20 -105 0
-20 -82 0
-20 -229 0
-82 -105 0
-105 -229 0
-82 -229 0
-101 -185 0
-75 -185 0
-185 -213 0
-75 -101 0
-101 -213 0
-75 -213 0
-181 -192 0
-181 -245 0
-192 -245 0
-89 -177 0
-19 -177 0
-19 -89 0
-169 -232 0
-231 -232 0
-18 -232 0
-147 -232 0
-17 -232 0
-169 -231 0
-18 -169 0
-147 -169 0
-17 -169 0
-18 -231 0
-147 -231 0
-17 -231 0
-18 -147 0
-17 -18 0
-17 -147 0
-131 -210 0
-131 -200 0
-131 -155 0
-131 -209 0
-131 -184 0
-200 -210 0
-155 -210 0
-209 -210 0
-184 -210 0
-155 -200 0
-200 -209 0
-184 -200 0
-155 -209 0
-155 -184 0
-184 -209 0
-104 -122 0
-16 -122 0
-99 -122 0
-15 -122 0
-97 -122 0
-16 -104 0
-99 -104 0
-15 -104 0
-97 -104 0
-16 -99 0
-15 -16 0
-16 -97 0
-15 -99 0
-97 -99 0
-15 -97 0
-159 -179 0
-132 -179 0
-14 -179 0
-13 -179 0
-132 -159 0
-14 -159 0
-13 -159 0
-14 -132 0
-13 -132 0
-13 -14 0
-189 -237 0
-12 -189 0
-189 -243 0
-189 -204 0
-12 -237 0
-237 -243 0
-204 -237 0
-12 -243 0
-12 -204 0
-204 -243 0
-11 -283 0
-283 -284 0
-11 -284 0
-131 -232 0
-122 -232 0
-122 -131 0
-169 -210 0
-104 -169 0
-169 -179 0
-169 -189 0
-169 -283 0
-104 -210 0
-179 -210 0
-189 -210 0
-210 -283 0
-104 -179 0
-104 -189 0
-104 -283 0
-179 -189 0
-179 -283 0
-189 -283 0
-200 -231 0
-16 -231 0
-159 -231 0
-231 -237 0
-11 -231 0
-16 -200 0
-159 -200 0
-200 -237 0
-11 -200 0
-16 -159 0
-16 -237 0
-11 -16 0
-159 -237 0
-11 -159 0
-11 -237 0
-18 -155 0
-18 -99 0
-18 -132 0
-12 -18 0
-18 -284 0
-99 -155 0
-132 -155 0
-12 -155 0
-155 -284 0
-99 -132 0
-12 -99 0
-99 -284 0
-12 -132 0
-132 -284 0
-12 -284 0
-147 -209 0
-15 -147 0
-14 -147 0
-147 -243 0
-15 -209 0
-14 -209 0
-209 -243 0
-14 -15 0
-15 -243 0
-14 -243 0
-17 -184 0
-17 -97 0
-13 -17 0
-17 -204 0
-97 -184 0
-13 -184 0
-184 -204 0
-13 -97 0
-97 -204 0
-13 -204 0
-10 -186 0
-10 -137 0
-10 -171 0
-137 -186 0
-171 -186 0
-137 -171 0
-120 -234 0
-94 -234 0
-87 -234 0
-94 -120 0
-87 -120 0
-87 -94 0
-195 -254 0
-233 -254 0
-9 -254 0
-195 -233 0
-9 -195 0
-9 -233 0
-199 -211 0
-121 -211 0
-100 -211 0
-121 -199 0
-100 -199 0
-100 -121 0
-10 -234 0
-10 -254 0
-10 -211 0
-234 -254 0
-211 -234 0
-211 -254 0
-120 -186 0
-186 -195 0
-186 -199 0
-120 -195 0
-120 -199 0
-195 -199 0
-94 -137 0
-137 -233 0
-121 -137 0
-94 -233 0
-94 -121 0
-121 -233 0
-87 -171 0
-9 -171 0
-100 -171 0
-9 -87 0
-87 -100 0
-9 -100 0
-221 -307 0
-8 -221 0
-60 -221 0
-8 -307 0
-60 -307 0
-8 -60 0
-298 -310 0
-114 -310 0
-85 -310 0
-114 -298 0
-85 -298 0
-85 -114 0
-57 -66 0
-66 -130 0
-66 -240 0
-7 -66 0
-57 -130 0
-57 -240 0
-7 -57 0
-130 -240 0
-7 -130 0
-7 -240 0
-6 -225 0
-5 -6 0
-4 -6 0
-3 -6 0
-5 -225 0
-4 -225 0
-3 -225 0
-4 -5 0
-3 -5 0
-3 -4 0
-152 -270 0
-63 -270 0
-2 -270 0
-53 -270 0
-63 -152 0
-2 -152 0
-53 -152 0
-2 -63 0
-53 -63 0
-2 -53 0
-138 -292 0
-1 -292 0
-136 -292 0
-170 -292 0
-1 -138 0
-136 -138 0
-138 -170 0
-1 -136 0
-1 -170 0
-136 -170 0
-221 -310 0
-66 -221 0
-6 -221 0
-221 -270 0
-221 -292 0
-66 -310 0
-6 -310 0
-270 -310 0
-292 -310 0
-6 -66 0
-66 -270 0
-66 -292 0
-6 -270 0
-6 -292 0
-270 -292 0
-298 -307 0
-57 -307 0
-225 -307 0
-152 -307 0
-138 -307 0
-57 -298 0
-225 -298 0
-152 -298 0
-138 -298 0
-57 -225 0
-57 -152 0
-57 -138 0
-152 -225 0
-138 -225 0
-138 -152 0
-8 -114 0
-8 -130 0
-5 -8 0
-8 -63 0
-1 -8 0
-114 -130 0
-5 -114 0
-63 -114 0
-1 -114 0
-5 -130 0
-63 -130 0
-1 -130 0
-5 -63 0
-1 -5 0
-1 -63 0
-4 -240 0
-2 -240 0
-136 -240 0
-2 -4 0
-4 -136 0
-2 -136 0
-3 -7 0
-7 -53 0
-7 -170 0
-3 -53 0
-3 -170 0
-53 -170 0
-60 -85 0
-145 -207 0
-145 -180 0
-145 -282 0
-145 -196 0
-145 -188 0
-145 -217 0
-129 -145 0
-117 -145 0
-180 -207 0
-207 -282 0
-196 -207 0
-188 -207 0
-207 -217 0
-129 -207 0
-117 -207 0
-180 -282 0
-180 -196 0
-180 -188 0
-180 -217 0
-129 -180 0
-117 -180 0
-196 -282 0
-188 -282 0
-217 -282 0
-129 -282 0
-117 -282 0
-188 -196 0
-196 -217 0
-129 -196 0
-117 -196 0
-188 -217 0
-129 -188 0
-117 -188 0
-129 -217 0
-117 -217 0
-117 -129 0
-166 -172 0
-51 -172 0
-48 -172 0
-135 -172 0
-172 -286 0
-51 -166 0
-48 -166 0
-135 -166 0
-166 -286 0
-48 -51 0
-51 -135 0
-51 -286 0
-48 -135 0
-48 -286 0
-135 -286 0
-45 -175 0
-45 -288 0
-45 -224 0
-45 -126 0
-45 -300 0
-175 -288 0
-175 -224 0
-126 -175 0
-175 -300 0
-224 -288 0
-126 -288 0
-288 -300 0
-126 -224 0
-224 -300 0
-126 -300 0
-79 -81 0
-41 -81 0
-38 -81 0
-81 -142 0
-55 -81 0
-81 -227 0
-81 -123 0
-81 -115 0
-41 -79 0
-38 -79 0
-79 -142 0
-55 -79 0
-79 -227 0
-79 -123 0
-79 -115 0
-38 -41 0
-41 -142 0
-41 -55 0
-41 -227 0
-41 -123 0
-41 -115 0
-38 -142 0
-38 -55 0
-38 -227 0
-38 -123 0
-38 -115 0
-55 -142 0
-142 -227 0
-123 -142 0
-115 -142 0
-55 -227 0
-55 -123 0
-55 -115 0
-123 -227 0
-115 -227 0
-115 -123 0
-131 -232 0
-122 -232 0
-122 -131 0
-10 -186 0
-10 -234 0
-10 -120 0
-186 -234 0
-120 -186 0
-120 -234 0
-221 -307 0
-8 -221 0
-221 -310 0
-221 -298 0
-114 -221 0
-8 -307 0
-307 -310 0
-298 -307 0
-114 -307 0
-8 -310 0
-8 -298 0
-8 -114 0
-298 -310 0
-114 -310 0
-114 -298 0
-267 -271 0
-267 -303 0
-271 -303 0
-158 -273 0
-158 -239 0
-158 -294 0
-111 -158 0
-158 -312 0
-239 -273 0
-273 -294 0
-111 -273 0
-273 -312 0
-239 -294 0
-111 -239 0
-239 -312 0
-111 -294 0
-294 -312 0
-111 -312 0
-290 -296 0
-110 -290 0
-43 -290 0
-110 -296 0
-43 -296 0
-43 -110 0
-72 -165 0
-40 -72 0
-72 -139 0
-72 -198 0
-72 -201 0
-72 -106 0
-37 -72 0
-72 -102 0
-40 -165 0
-139 -165 0
-165 -198 0
-165 -201 0
-106 -165 0
-37 -165 0
-102 -165 0
-40 -139 0
-40 -198 0
-40 -201 0
-40 -106 0
-37 -40 0
-40 -102 0
-139 -198 0
-139 -201 0
-106 -139 0
-37 -139 0
-102 -139 0
-198 -201 0
-106 -198 0
-37 -198 0
-102 -198 0
-106 -201 0
-37 -201 0
-102 -201 0
-37 -106 0
-102 -106 0
-37 -102 0
-20 -185 0
-20 -105 0
-20 -101 0
-105 -185 0
-101 -185 0
-101 -105 0
-169 -231 0
-18 -169 0
-169 -210 0
-169 -200 0
-155 -169 0
-104 -169 0
-16 -169 0
-99 -169 0
-18 -231 0
-210 -231 0
-200 -231 0
-155 -231 0
-104 -231 0
-16 -231 0
-99 -231 0
-18 -210 0
-18 -200 0
-18 -155 0
-18 -104 0
-16 -18 0
-18 -99 0
-200 -210 0
-155 -210 0
-104 -210 0
-16 -210 0
-99 -210 0
-155 -200 0
-104 -200 0
-16 -200 0
-99 -200 0
-104 -155 0
-16 -155 0
-99 -155 0
-16 -104 0
-99 -104 0
-16 -99 0
-153 -279 0
-218 -279 0
-150 -279 0
-279 -313 0
-93 -279 0
-153 -218 0
-150 -153 0
-153 -313 0
-93 -153 0
-150 -218 0
-218 -313 0
-93 -218 0
-150 -313 0
-93 -150 0
-93 -313 0
-49 -148 0
-148 -208 0
-148 -161 0
-49 -208 0
-49 -161 0
-161 -208 0
-39 -113 0
-65 -113 0
-113 -228 0
-113 -212 0
-113 -214 0
-36 -113 0
-113 -190 0
-91 -113 0
-39 -65 0
-39 -228 0
-39 -212 0
-39 -214 0
-36 -39 0
-39 -190 0
-39 -91 0
-65 -228 0
-65 -212 0
-65 -214 0
-36 -65 0
-65 -190 0
-65 -91 0
-212 -228 0
-214 -228 0
-36 -228 0
-190 -228 0
-91 -228 0
-212 -214 0
-36 -212 0
-190 -212 0
-91 -212 0
-36 -214 0
-190 -214 0
-91 -214 0
-36 -190 0
-36 -91 0
-91 -190 0
-177 -181 0
-181 -192 0
-89 -181 0
-177 -192 0
-89 -177 0
-89 -192 0
-17 -147 0
-147 -209 0
-147 -184 0
-15 -147 0
-97 -147 0
-17 -209 0
-17 -184 0
-15 -17 0
-17 -97 0
-184 -209 0
-15 -209 0
-97 -209 0
-15 -184 0
-97 -184 0
-15 -97 0
-137 -171 0
-94 -137 0
-87 -137 0
-94 -171 0
-87 -171 0
-87 -94 0
-60 -85 0
-80 -304 0
-64 -304 0
-56 -304 0
-215 -304 0
-230 -304 0
-64 -80 0
-56 -80 0
-80 -215 0
-80 -230 0
-56 -64 0
-64 -215 0
-64 -230 0
-56 -215 0
-56 -230 0
-215 -230 0
-84 -314 0
-84 -162 0
-84 -182 0
-84 -178 0
-84 -316 0
-162 -314 0
-182 -314 0
-178 -314 0
-314 -316 0
-162 -182 0
-162 -178 0
-162 -316 0
-178 -182 0
-182 -316 0
-178 -316 0
-47 -194 0
-194 -203 0
-47 -203 0
-42 -83 0
-83 -205 0
-83 -151 0
-62 -83 0
-83 -183 0
-42 -205 0
-42 -151 0
-42 -62 0
-42 -183 0
-151 -205 0
-62 -205 0
-183 -205 0
-62 -151 0
-151 -183 0
-62 -183 0
-35 -173 0
-163 -173 0
-68 -173 0
-59 -173 0
-133 -173 0
-30 -173 0
-173 -246 0
-29 -173 0
-35 -163 0
-35 -68 0
-35 -59 0
-35 -133 0
-30 -35 0
-35 -246 0
-29 -35 0
-68 -163 0
-59 -163 0
-133 -163 0
-30 -163 0
-163 -246 0
-29 -163 0
-59 -68 0
-68 -133 0
-30 -68 0
-68 -246 0
-29 -68 0
-59 -133 0
-30 -59 0
-59 -246 0
-29 -59 0
-30 -133 0
-133 -246 0
-29 -133 0
-30 -246 0
-29 -30 0
-29 -246 0
-57 -66 0
-66 -130 0
-6 -66 0
-66 -225 0
-5 -66 0
-57 -130 0
-6 -57 0
-57 -225 0
-5 -57 0
-6 -130 0
-130 -225 0
-5 -130 0
-6 -225 0
-5 -6 0
-5 -225 0
-74 -78 0
-71 -78 0
-78 -143 0
-54 -78 0
-78 -306 0
-78 -124 0
-78 -116 0
-78 -107 0
-71 -74 0
-74 -143 0
-54 -74 0
-74 -306 0
-74 -124 0
-74 -116 0
-74 -107 0
-71 -143 0
-54 -71 0
-71 -306 0
-71 -124 0
-71 -116 0
-71 -107 0
-54 -143 0
-143 -306 0
-124 -143 0
-116 -143 0
-107 -143 0
-54 -306 0
-54 -124 0
-54 -116 0
-54 -107 0
-124 -306 0
-116 -306 0
-107 -306 0
-116 -124 0
-107 -124 0
-107 -116 0
-156 -160 0
-160 -187 0
-52 -160 0
-156 -187 0
-52 -156 0
-52 -187 0
-73 -76 0
-76 -220 0
-76 -167 0
-76 -236 0
-32 -76 0
-76 -118 0
-28 -76 0
-27 -76 0
-73 -220 0
-73 -167 0
-73 -236 0
-32 -73 0
-73 -118 0
-28 -73 0
-27 -73 0
-167 -220 0
-220 -236 0
-32 -220 0
-118 -220 0
-28 -220 0
-27 -220 0
-167 -236 0
-32 -167 0
-118 -167 0
-28 -167 0
-27 -167 0
-32 -236 0
-118 -236 0
-28 -236 0
-27 -236 0
-32 -118 0
-28 -32 0
-27 -32 0
-28 -118 0
-27 -118 0
-27 -28 0
-159 -179 0
-132 -179 0
-179 -189 0
-179 -237 0
-12 -179 0
-132 -159 0
-159 -189 0
-159 -237 0
-12 -159 0
-132 -189 0
-132 -237 0
-12 -132 0
-189 -237 0
-12 -189 0
-12 -237 0
-7 -240 0
-4 -240 0
-3 -240 0
-4 -7 0
-3 -7 0
-3 -4 0
-112 -305 0
-202 -305 0
-141 -305 0
-103 -305 0
-249 -305 0
-112 -202 0
-112 -141 0
-103 -112 0
-112 -249 0
-141 -202 0
-103 -202 0
-202 -249 0
-103 -141 0
-141 -249 0
-103 -249 0
-70 -315 0
-315 -317 0
-250 -315 0
-70 -317 0
-70 -250 0
-250 -317 0
-33 -34 0
-34 -108 0
-34 -241 0
-34 -244 0
-31 -34 0
-26 -34 0
-34 -248 0
-34 -251 0
-33 -108 0
-33 -241 0
-33 -244 0
-31 -33 0
-26 -33 0
-33 -248 0
-33 -251 0
-108 -241 0
-108 -244 0
-31 -108 0
-26 -108 0
-108 -248 0
-108 -251 0
-241 -244 0
-31 -241 0
-26 -241 0
-241 -248 0
-241 -251 0
-31 -244 0
-26 -244 0
-244 -248 0
-244 -251 0
-26 -31 0
-31 -248 0
-31 -251 0
-26 -248 0
-26 -251 0
-248 -251 0
-19 -245 0
-13 -14 0
-14 -243 0
-14 -204 0
-13 -243 0
-13 -204 0
-204 -243 0
-92 -174 0
-92 -109 0
-69 -92 0
-92 -293 0
-92 -309 0
-109 -174 0
-69 -174 0
-174 -293 0
-174 -309 0
-69 -109 0
-109 -293 0
-109 -309 0
-69 -293 0
-69 -309 0
-293 -309 0
-90 -193 0
-193 -256 0
-193 -268 0
-193 -272 0
-193 -302 0
-90 -256 0
-90 -268 0
-90 -272 0
-90 -302 0
-256 -268 0
-256 -272 0
-256 -302 0
-268 -272 0
-268 -302 0
-272 -302 0
-98 -255 0
-98 -257 0
-98 -157 0
-98 -274 0
-98 -154 0
-98 -238 0
-98 -295 0
-46 -98 0
-255 -257 0
-157 -255 0
-255 -274 0
-154 -255 0
-238 -255 0
-255 -295 0
-46 -255 0
-157 -257 0
-257 -274 0
-154 -257 0
-238 -257 0
-257 -295 0
-46 -257 0
-157 -274 0
-154 -157 0
-157 -238 0
-157 -295 0
-46 -157 0
-154 -274 0
-238 -274 0
-274 -295 0
-46 -274 0
-154 -238 0
-154 -295 0
-46 -154 0
-238 -295 0
-46 -238 0
-46 -295 0
-88 -95 0
-95 -258 0
-95 -149 0
-95 -275 0
-95 -277 0
-88 -258 0
-88 -149 0
-88 -275 0
-88 -277 0
-149 -258 0
-258 -275 0
-258 -277 0
-149 -275 0
-149 -277 0
-275 -277 0
-86 -252 0
-252 -259 0
-252 -269 0
-252 -276 0
-67 -252 0
-252 -291 0
-252 -297 0
-22 -252 0
-86 -259 0
-86 -269 0
-86 -276 0
-67 -86 0
-86 -291 0
-86 -297 0
-22 -86 0
-259 -269 0
-259 -276 0
-67 -259 0
-259 -291 0
-259 -297 0
-22 -259 0
-269 -276 0
-67 -269 0
-269 -291 0
-269 -297 0
-22 -269 0
-67 -276 0
-276 -291 0
-276 -297 0
-22 -276 0
-67 -291 0
-67 -297 0
-22 -67 0
-291 -297 0
-22 -291 0
-22 -297 0
-140 -253 0
-195 -254 0
-211 -254 0
-199 -254 0
-195 -211 0
-195 -199 0
-199 -211 0
-152 -270 0
-63 -270 0
-270 -292 0
-138 -270 0
-1 -270 0
-63 -152 0
-152 -292 0
-138 -152 0
-1 -152 0
-63 -292 0
-63 -138 0
-1 -63 0
-138 -292 0
-1 -292 0
-1 -138 0
-164 -260 0
-77 -260 0
-61 -260 0
-134 -260 0
-168 -260 0
-247 -260 0
-235 -260 0
-119 -260 0
-77 -164 0
-61 -164 0
-134 -164 0
-164 -168 0
-164 -247 0
-164 -235 0
-119 -164 0
-61 -77 0
-77 -134 0
-77 -168 0
-77 -247 0
-77 -235 0
-77 -119 0
-61 -134 0
-61 -168 0
-61 -247 0
-61 -235 0
-61 -119 0
-134 -168 0
-134 -247 0
-134 -235 0
-119 -134 0
-168 -247 0
-168 -235 0
-119 -168 0
-235 -247 0
-119 -247 0
-119 -235 0
-261 -263 0
-261 -278 0
-261 -318 0
-263 -278 0
-263 -318 0
-278 -318 0
-146 -280 0
-146 -219 0
-219 -280 0
-262 -264 0
-262 -265 0
-58 -262 0
-23 -262 0
-191 -262 0
-226 -262 0
-127 -262 0
-21 -262 0
-264 -265 0
-58 -264 0
-23 -264 0
-191 -264 0
-226 -264 0
-127 -264 0
-21 -264 0
-58 -265 0
-23 -265 0
-191 -265 0
-226 -265 0
-127 -265 0
-21 -265 0
-23 -58 0
-58 -191 0
-58 -226 0
-58 -127 0
-21 -58 0
-23 -191 0
-23 -226 0
-23 -127 0
-21 -23 0
-191 -226 0
-127 -191 0
-21 -191 0
-127 -226 0
-21 -226 0
-21 -127 0
-75 -82 0
-82 -229 0
-82 -213 0
-75 -229 0
-75 -213 0
-213 -229 0
-11 -283 0
-283 -284 0
-11 -284 0
-2 -53 0
-2 -136 0
-2 -170 0
-53 -136 0
-53 -170 0
-136 -170 0
-222 -308 0
-222 -285 0
-222 -242 0
-222 -311 0
-222 -299 0
-285 -308 0
-242 -308 0
-308 -311 0
-299 -308 0
-242 -285 0
-285 -311 0
-285 -299 0
-242 -311 0
-242 -299 0
-299 -311 0
-144 -206 0
-144 -281 0
-144 -197 0
-144 -216 0
-128 -144 0
-206 -281 0
-197 -206 0
-206 -216 0
-128 -206 0
-197 -281 0
-216 -281 0
-128 -281 0
-197 -216 0
-128 -197 0
-128 -216 0
-50 -287 0
-25 -266 0
-24 -25 0
-25 -44 0
-25 -176 0
-25 -289 0
-25 -223 0
-25 -125 0
-25 -301 0
-24 -266 0
-44 -266 0
-176 -266 0
-266 -289 0
-223 -266 0
-125 -266 0
-266 -301 0
-24 -44 0
-24 -176 0
-24 -289 0
-24 -223 0
-24 -125 0
-24 -301 0
-44 -176 0
-44 -289 0
-44 -223 0
-44 -125 0
-44 -301 0
-176 -289 0
-176 -223 0
-125 -176 0
-176 -301 0
-223 -289 0
-125 -289 0
-289 -301 0
-125 -223 0
-223 -301 0
-125 -301 0
-9 -233 0
-121 -233 0
-100 -233 0
-9 -121 0
-9 -100 0
-100 -121 0
